Maximize
	- 4 x1 + 1 x2 + 6 x3 
Maximize
	+ 2 x1 + 4 x2 - 1 x4 + 6 x5 
Maximize
	+ 5 x1 + 5 x2 - 2 x3 + 6 x4 
Subject To
	+ 3 x2 - 1 x3 - 4 x4 + 1 x5 <= 6
Bounds
	0 <= x1 <= 4
	0 <= x2 <= 4
	0 <= x3 <= 4
	0 <= x4 <= 4
	0 <= x5 <= 4
Integers
	x1 x2 x3 x4 x5 
End